c formula: 49917 vars, 74922 hard, 518 soft
c cost: 1; core sz: 145; soft sz: 374
c cost: 2; core sz: 52; soft sz: 324
c cost: 3; core sz: 2; soft sz: 325
c cost: 4; core sz: 15; soft sz: 313
c cost: 5; core sz: 8; soft sz: 309
c cost: 6; core sz: 109; soft sz: 201
c cost: 7; core sz: 39; soft sz: 164
c cost: 8; core sz: 2; soft sz: 165
c cost: 9; core sz: 5; soft sz: 165
s OPTIMUM FOUND
o 9
c oracle time: 18.0318
